
******************************************************************************
This program contains Ipopt, a library for large-scale nonlinear optimization.
 Ipopt is released as open source code under the Eclipse Public License (EPL).
         For more information visit http://projects.coin-or.org/Ipopt
******************************************************************************

This is Ipopt version 3.12.6, running with linear solver ma57.

Number of nonzeros in equality constraint Jacobian...:    41395
Number of nonzeros in inequality constraint Jacobian.:        0
Number of nonzeros in Lagrangian Hessian.............:    17330

Total number of variables............................:     6905
                     variables with only lower bounds:     6905
                variables with lower and upper bounds:        0
                     variables with only upper bounds:        0
Total number of equality constraints.................:     6900
Total number of inequality constraints...............:        0
        inequality constraints with only lower bounds:        0
   inequality constraints with lower and upper bounds:        0
        inequality constraints with only upper bounds:        0

iter    objective    inf_pr   inf_du lg(mu)  ||d||  lg(rg) alpha_du alpha_pr  ls
   0  7.4178545e+00 1.00e+01 1.54e+01  -1.0 0.00e+00    -  0.00e+00 0.00e+00   0
   1  1.5070029e+01 8.92e+00 4.89e+01  -1.0 2.39e+00    -  4.30e-03 1.08e-01f  1
   2  9.9318980e+00 8.85e+00 1.13e+02  -1.0 2.79e+01    -  1.46e-02 7.69e-03f  1
   3  1.6900510e+00 2.33e+00 2.58e+03  -1.0 8.11e-01   2.0 1.00e+00 7.36e-01f  1
   4  9.6861611e-01 1.81e+00 1.95e+03  -1.0 1.55e-01   1.5 9.30e-01 2.24e-01f  1
   5  4.7034957e-01 9.65e-01 8.96e+03  -1.0 7.55e-02   1.9 1.53e-01 4.68e-01f  1
   6  4.4667497e-01 8.76e-01 1.23e+04  -1.0 5.40e-02   1.5 1.79e-02 9.23e-02f  1
   7  3.6384696e-01 6.72e-01 2.55e+04  -1.0 1.45e+00   1.0 3.28e-01 4.44e-01F  1
   8  3.9351552e-01 1.94e+00 8.68e+04  -1.0 1.32e-01   1.4 1.14e-02 9.16e-01f  1
   9  3.8389493e-01 3.75e-01 1.29e+04  -1.0 4.17e-02   1.8 1.00e+00 9.90e-01f  1
iter    objective    inf_pr   inf_du lg(mu)  ||d||  lg(rg) alpha_du alpha_pr  ls
  10  3.8749082e-01 1.13e-01 1.04e+05  -1.0 5.91e-02   1.4 5.73e-01 1.00e+00f  1
  11  3.8707230e-01 2.06e-02 4.17e+04  -1.0 2.25e-02   1.8 1.00e+00 1.00e+00f  1
  12  3.8698781e-01 1.28e+00 2.88e+06  -1.0 8.81e-02   1.3 4.35e-01 1.00e+00f  1
  13  3.8683653e-01 9.18e-01 2.29e+06  -1.0 3.88e-02   2.6 1.00e+00 6.35e-01h  1
  14  3.8661489e-01 8.96e-01 1.33e+07  -1.0 1.83e-01   2.2 1.00e+00 2.49e-02h  1
  15  3.8626770e-01 8.78e-01 1.01e+07  -1.0 1.83e-01   1.7 1.00e+00 1.96e-02h  1
  16  3.8597720e-01 8.60e-01 9.87e+06  -1.0 1.90e-01   1.2 6.81e-02 2.05e-02h  1
  17  3.6296030e-01 1.72e-01 3.20e+06  -1.0 1.99e-01   0.7 7.45e-04 8.04e-01h  1
  18  2.4573458e+00 3.16e+00 1.26e+07  -1.0 1.28e+00   0.3 4.56e-03 6.45e-01f  1
  19  1.9162023e+00 2.76e+00 1.10e+07  -1.0 2.62e-01   1.6 3.28e-02 1.28e-01f  1
iter    objective    inf_pr   inf_du lg(mu)  ||d||  lg(rg) alpha_du alpha_pr  ls
  20  1.0670598e+00 1.05e+00 7.15e+06  -1.0 4.18e-01   1.1 2.13e-01 9.04e-01f  1
  21  4.3324471e-01 3.65e-01 1.38e+06  -1.0 4.75e-01   0.6 5.68e-01 1.00e+00f  1
  22  6.7599633e-01 2.23e+00 7.80e+05  -1.0 1.58e+00    -  5.37e-01 8.81e-01f  1
  23  3.7873045e-01 1.64e-01 3.77e+05  -1.0 1.80e-01   0.2 8.11e-01 1.00e+00f  1
  24  3.8111509e-01 1.83e+00 1.92e+06  -1.0 3.39e+00    -  5.18e-02 1.00e+00f  1
  25  4.2958139e-01 1.81e+00 1.80e+06  -1.0 3.37e+00    -  4.92e-01 1.00e+00f  1
  26  4.3735827e-01 5.66e+00 1.75e+06  -1.0 1.04e+01    -  1.14e-01 6.52e-01f  1
  27  6.6300030e-01 5.20e+00 4.47e+05  -1.0 7.89e+00    -  8.77e-01 1.00e+00f  1
  28  3.6466928e-01 3.55e-02 8.73e+03  -1.0 2.18e-01  -0.3 1.00e+00 1.00e+00h  1
  29  3.6499362e-01 1.84e-02 7.66e+02  -1.0 2.37e-01  -0.8 1.00e+00 1.00e+00f  1
iter    objective    inf_pr   inf_du lg(mu)  ||d||  lg(rg) alpha_du alpha_pr  ls
  30  3.6598419e-01 1.52e-01 2.79e+03  -1.0 6.71e-01  -1.3 1.00e+00 1.00e+00f  1
  31  3.6869497e-01 1.24e+00 1.32e+04  -1.0 1.81e+00  -1.7 1.00e+00 1.00e+00f  1
  32  3.7936760e-01 6.51e+01 8.03e+06  -1.0 3.07e+01  -2.2 5.67e-02 2.92e-01f  1
  33  3.7569791e-01 2.57e+01 1.77e+05  -1.0 3.51e+00  -1.8 1.00e+00 1.00e+00f  1
  34  3.7606142e-01 2.38e+01 4.46e+06  -1.0 1.06e+01  -2.3 1.00e+00 7.74e-02h  1
  35  3.7619786e-01 2.37e+01 3.29e+06  -1.0 1.96e+01  -2.8 4.22e-01 4.79e-03h  1
  36  3.9037409e-01 2.26e+01 2.53e+06  -1.0 1.44e+02  -3.2 7.85e-02 5.62e-02f  1
  37  4.1612286e-01 7.32e+01 2.84e+06  -1.0 3.49e+01  -2.8 1.67e-01 9.76e-01f  1
  38  4.1051313e-01 1.61e+02 2.41e+06  -1.0 3.34e+02  -3.3 1.57e-01 1.48e-01f  1
  39  4.1161868e-01 1.59e+02 2.37e+06  -1.0 2.23e+02  -2.9 2.22e-03 2.06e-02h  4
iter    objective    inf_pr   inf_du lg(mu)  ||d||  lg(rg) alpha_du alpha_pr  ls
  40  4.1136894e-01 1.57e+02 2.85e+06  -1.0 2.61e+01  -2.4 3.23e-01 1.30e-02h  1
  41  4.0747412e-01 1.32e+02 1.92e+06  -1.0 7.28e+01  -2.9 9.08e-02 3.14e-01f  2
  42  4.0556733e-01 1.07e+02 1.07e+06  -1.0 2.54e+01  -2.5 8.54e-01 1.93e-01f  1
  43  3.9691949e-01 2.85e+02 2.22e+06  -1.0 8.66e+01  -3.0 2.24e-01 1.00e+00f  1
  44  4.0112297e-01 1.10e+02 9.58e+05  -1.0 5.00e+01  -1.6 7.11e-02 1.00e+00h  1
  45  4.0097746e-01 1.65e+01 1.88e+05  -1.0 1.94e+01  -2.1 1.00e+00 1.00e+00h  1
  46  4.0291980e-01 5.70e+01 7.74e+04  -1.0 2.53e+02    -  3.63e-01 3.61e-01f  1
  47  1.2933142e+00 4.65e+02 7.98e+05  -1.0 6.07e+02    -  5.19e-01 1.00e+00f  1
  48  3.9537618e-01 5.33e-01 3.83e+03  -1.0 1.70e+00  -2.6 8.46e-01 1.00e+00h  1
  49  4.0339964e-01 1.74e+01 2.08e+05  -1.0 8.42e+02    -  8.18e-01 1.00e+00f  1
iter    objective    inf_pr   inf_du lg(mu)  ||d||  lg(rg) alpha_du alpha_pr  ls
  50  3.9522080e-01 1.08e-01 8.57e+02  -1.0 1.87e+00  -3.1 1.00e+00 1.00e+00h  1
  51  4.0144587e-01 8.77e+01 4.34e+04  -1.0 1.61e+03    -  9.82e-01 1.00e+00f  1
Reallocating memory for MA57: lfact (342346)
  52  4.0039475e-01 6.34e+02 4.00e+04  -1.0 4.51e+04    -  8.06e-02 1.60e-02f  3
  53  3.9876622e-01 1.11e+03 2.03e+04  -1.0 5.63e+04    -  7.62e-02 3.82e-02f  5
  54  3.9968311e-01 1.96e+02 2.64e+04  -1.0 5.74e+04    -  3.07e-01 1.04e-02F  1
  55  4.0058488e-01 8.35e+02 2.90e+04  -1.0 5.74e+04    -  6.05e-03 2.13e-02f  4
  56  4.0124987e-01 1.29e+03 3.71e+04  -1.0 5.69e+04    -  3.44e-03 1.87e-02f  4
  57  4.0128723e-01 1.29e+03 3.71e+04  -1.0 5.46e+04    -  8.14e-02 2.70e-03f  7
  58  4.0129674e-01 1.30e+03 3.72e+04  -1.0 5.68e+04    -  3.16e-02 8.27e-03f  7
  59  4.0135629e-01 5.94e+02 3.77e+04  -1.0 5.81e+04    -  4.14e-02 6.40e-03F  1
iter    objective    inf_pr   inf_du lg(mu)  ||d||  lg(rg) alpha_du alpha_pr  ls
  60  4.0135612e-01 6.00e+02 3.77e+04  -1.0 5.92e+04    -  3.87e-02 7.93e-05F  1
  61  4.0104216e-01 1.35e+03 2.97e+04  -1.0 6.11e+04    -  5.17e-02 6.62e-02f  3
  62  4.0099602e-01 5.34e+02 2.91e+04  -1.0 7.29e+04    -  5.01e-04 6.25e-02f  5
  63  4.0029774e-01 1.48e+03 3.61e+04  -1.0 2.82e+05    -  1.80e-02 1.21e-02f  5
  64  4.0017048e-01 1.31e+01 3.22e+05  -1.0 4.02e+02  -3.5 1.00e+00 1.00e+00h  1
Reallocating memory for MA57: lfact (362088)
  65  4.0110620e-01 1.12e+03 4.05e+05  -1.0 1.84e+04    -  8.97e-01 1.00e+00f  1
  66  4.0026599e-01 1.56e-02 2.14e+01  -1.0 1.01e+00  -4.0 1.00e+00 1.00e+00h  1
  67  4.0057281e-01 7.68e+02 7.00e+04  -1.7 4.71e+03    -  9.91e-01 1.00e+00f  1
  68  4.0056462e-01 3.25e-01 3.33e+02  -1.7 3.34e+01  -4.5 1.00e+00 1.00e+00h  1
  69  4.0056467e-01 4.81e-05 3.21e+00  -1.7 5.23e-01  -5.0 1.00e+00 1.00e+00h  1
iter    objective    inf_pr   inf_du lg(mu)  ||d||  lg(rg) alpha_du alpha_pr  ls
  70  4.0061433e-01 1.30e+03 5.73e+04  -1.7 3.43e+04    -  9.04e-01 5.00e-01f  2
  71  4.0059680e-01 1.71e-01 1.87e+01  -1.7 6.33e+00  -5.4 1.00e+00 1.00e+00h  1
  72  4.0059700e-01 1.17e-03 8.55e+00  -1.7 3.08e+00  -5.9 1.00e+00 1.00e+00h  1
  73  4.0063223e-01 5.20e+02 1.61e+04  -1.7 4.27e+04    -  8.70e-01 2.50e-01f  3
  74  4.0063131e-01 1.05e-01 4.00e+00  -1.7 9.97e+00  -6.4 1.00e+00 1.00e+00h  1
  75  4.0085180e-01 9.50e+02 4.89e+04  -1.7 3.51e+04    -  1.00e+00 2.50e-01f  3
  76  4.0084494e-01 3.95e-01 1.90e+01  -1.7 5.40e+01  -6.9 1.00e+00 1.00e+00h  1
  77  4.0086384e-01 9.82e+02 1.19e+04  -1.7 4.84e+04    -  7.10e-01 2.50e-01f  3
  78  4.0086334e-01 1.24e+00 1.39e+01  -1.7 6.69e+01  -7.4 1.00e+00 1.00e+00h  1
  79  4.0086607e-01 1.17e+00 2.77e+01  -1.7 1.25e+02  -7.8 1.00e+00 1.00e+00h  1
iter    objective    inf_pr   inf_du lg(mu)  ||d||  lg(rg) alpha_du alpha_pr  ls
  80  4.0094357e-01 2.72e+02 1.17e+04  -1.7 3.51e+04    -  7.78e-01 1.25e-01f  4
  81  4.0094738e-01 6.65e+00 4.24e+01  -1.7 3.38e+02  -8.3 1.00e+00 1.00e+00h  1
  82  4.0102031e-01 4.97e+02 1.57e+04  -1.7 3.07e+04    -  7.80e-01 1.25e-01h  4
  83  4.0102377e-01 5.41e+01 7.84e+01  -1.7 8.95e+02  -8.8 1.00e+00 1.00e+00h  1
  84  4.0103182e-01 5.29e+02 3.34e+03  -1.7 6.14e+05    -  6.52e-02 9.12e-03h  5
  85  4.0102514e-01 5.02e+02 1.12e+03  -1.7 2.40e+03  -9.3 1.00e+00 1.00e+00h  1
  86  4.0098818e-01 2.35e+02 8.40e+03  -1.7 5.43e+03  -9.7 1.00e+00 1.00e+00H  1
  87  4.0081461e-01 5.62e+02 4.41e+04  -1.7 1.16e+04 -10.2 1.00e+00 1.00e+00H  1
  88  4.0076659e-01 6.63e+02 4.31e+04  -1.7 4.05e+04 -10.7 3.56e-01 3.12e-02h  6
  89  4.0076042e-01 7.46e+02 4.04e+04  -1.7 1.86e+04 -10.3 1.00e+00 6.25e-02h  5
iter    objective    inf_pr   inf_du lg(mu)  ||d||  lg(rg) alpha_du alpha_pr  ls
  90  4.0066442e-01 2.31e+02 2.11e+03  -1.7 4.63e+03  -9.8 1.00e+00 1.00e+00H  1
  91  4.0030013e-01 4.14e+02 3.88e+04  -1.7 1.08e+04 -10.3 1.00e+00 1.00e+00H  1
  92  4.0016898e-01 1.70e+03 1.41e+03  -1.7 4.19e+03  -9.9 1.00e+00 1.00e+00H  1
  93  4.0015275e-01 1.83e+03 1.40e+03  -1.7 1.39e+04 -10.4 8.43e-01 3.12e-02h  6
  94  4.0014587e-01 1.87e+03 1.33e+03  -1.7 6.53e+03  -9.9 1.00e+00 6.25e-02h  5
  95  4.0013664e-01 2.00e+03 1.32e+03  -1.7 2.36e+04 -10.4 4.94e-01 1.56e-02h  7
  96  4.0012966e-01 2.17e+03 1.25e+03  -1.7 8.37e+03 -10.0 1.00e+00 6.25e-02h  5
  97  4.0012332e-01 2.42e+03 1.24e+03  -1.7 5.65e+04 -10.5 2.01e-01 7.81e-03h  8
  98  4.0012053e-01 2.54e+03 1.20e+03  -1.7 1.24e+04 -10.0 1.00e+00 3.12e-02h  6
  99  4.0005620e-01 1.25e+03 7.74e+02  -1.7 2.44e+03  -9.6 1.00e+00 1.00e+00H  1
iter    objective    inf_pr   inf_du lg(mu)  ||d||  lg(rg) alpha_du alpha_pr  ls
 100  4.0004086e-01 1.61e+03 7.57e+02  -1.7 8.09e+03 -10.1 1.00e+00 6.25e-02h  5
 101  3.9997572e-01 1.74e+03 8.06e+02  -1.7 3.20e+03  -9.7 1.00e+00 1.00e+00H  1
 102  3.9996585e-01 2.44e+03 7.91e+02  -1.7 1.57e+04 -10.2 5.31e-01 3.12e-02h  6
 103  3.9996220e-01 2.85e+03 7.45e+02  -1.7 6.46e+03  -9.7 1.00e+00 6.25e-02h  5
 104  3.9996048e-01 4.73e+03 7.42e+02  -1.7 1.65e+05 -10.2 5.48e-02 4.47e-03h  7
 105  3.9995992e-01 5.32e+03 7.19e+02  -1.7 1.33e+04  -9.8 1.00e+00 3.12e-02h  6
 106  3.9993019e-01 1.07e+03 1.53e+02  -1.7 2.03e+03  -9.3 1.00e+00 1.00e+00H  1
 107  3.9992315e-01 2.79e+03 1.50e+02  -1.7 8.50e+03  -9.8 9.78e-01 6.25e-02h  5
 108  3.9991973e-01 3.85e+03 1.34e+02  -1.7 3.56e+03  -9.4 1.00e+00 1.25e-01h  4
 109  3.9991595e-01 5.43e+03 1.31e+02  -1.7 1.52e+04  -9.9 4.63e-01 3.12e-02h  6
iter    objective    inf_pr   inf_du lg(mu)  ||d||  lg(rg) alpha_du alpha_pr  ls
 110  3.9991441e-01 6.04e+03 1.24e+02  -1.7 5.32e+03  -9.5 1.00e+00 6.25e-02h  5
 111  3.9991428e-01 6.75e+03 1.23e+02  -1.7 7.94e+04  -9.9 8.68e-02 3.66e-03h  8
 112  3.9991414e-01 6.85e+03 1.21e+02  -1.7 9.42e+03  -9.5 1.00e+00 1.56e-02h  7
 113  3.9989959e-01 7.21e+03 3.82e+01  -1.7 1.54e+03  -9.1 1.00e+00 1.00e+00H  1
 114  3.9989883e-01 7.25e+03 3.77e+01  -1.7 6.54e+03  -9.6 9.65e-01 1.56e-02h  7
 115  3.9989800e-01 7.17e+03 3.55e+01  -1.7 2.50e+03  -9.1 1.00e+00 6.25e-02h  5
 116  3.9989721e-01 7.37e+03 3.50e+01  -1.7 9.11e+03  -9.6 6.17e-01 1.56e-02h  7
 117  3.9989635e-01 7.54e+03 3.30e+01  -1.7 3.15e+03  -9.2 1.00e+00 6.25e-02h  5
 118  3.9989618e-01 7.57e+03 3.28e+01  -1.7 1.53e+04  -9.7 3.59e-01 3.91e-03h  9
 119  3.9989579e-01 7.64e+03 3.19e+01  -1.7 4.23e+03  -9.2 1.00e+00 3.12e-02h  6
iter    objective    inf_pr   inf_du lg(mu)  ||d||  lg(rg) alpha_du alpha_pr  ls
 120  3.9989577e-01 7.69e+03 3.18e+01  -1.7 3.29e+04  -9.7 1.67e-01 1.82e-03h 10
 121  3.9989564e-01 7.72e+03 3.13e+01  -1.7 5.96e+03  -9.3 1.00e+00 1.56e-02h  7
 122  3.9988735e-01 7.19e+03 1.26e+01  -1.7 1.17e+03  -8.9 1.00e+00 1.00e+00H  1
 123  3.9988575e-01 9.15e+03 1.23e+01  -1.7 4.81e+03  -9.3 1.00e+00 6.25e-02h  5
 124  3.9988530e-01 9.01e+03 1.16e+01  -1.7 1.93e+03  -8.9 1.00e+00 6.25e-02h  5
 125  3.9988492e-01 9.24e+03 1.15e+01  -1.7 7.04e+03  -9.4 6.43e-01 1.56e-02h  7
 126  3.9988447e-01 9.41e+03 1.08e+01  -1.7 2.44e+03  -9.0 1.00e+00 6.25e-02h  5
 127  3.9988439e-01 9.44e+03 1.08e+01  -1.7 1.07e+04  -9.4 4.04e-01 3.91e-03h  9
 128  3.9988418e-01 9.48e+03 1.05e+01  -1.7 3.17e+03  -9.0 1.00e+00 3.12e-02h  6
 129  3.9988417e-01 9.63e+03 1.05e+01  -1.7 1.90e+04  -9.5 2.26e-01 3.91e-03h  9
iter    objective    inf_pr   inf_du lg(mu)  ||d||  lg(rg) alpha_du alpha_pr  ls
 130  3.9988410e-01 9.65e+03 1.03e+01  -1.7 4.36e+03  -9.1 1.00e+00 1.56e-02h  7
 131  3.9988427e-01 9.95e+03 1.03e+01  -1.7 6.79e+04  -9.5 6.26e-02 1.35e-03h  9
 132  3.9988428e-01 9.97e+03 1.02e+01  -1.7 6.54e+03  -9.1 1.00e+00 7.81e-03h  8
 133  3.9987928e-01 4.94e+04 4.93e+00  -1.7 1.10e+03  -8.7 1.00e+00 1.00e+00w  1
 134  3.9986654e-01 1.73e+06 3.43e+01  -1.7 5.32e+03  -9.2 6.68e-01 1.00e+00w  1
 135  3.9986710e-01 1.39e+06 2.56e+01  -1.7 5.58e+03  -8.7 1.00e+00 2.40e-01w  1
 136  3.9988366e-01 9.49e+03 9.04e+00  -1.7 1.82e+04  -9.2 1.00e+00 1.25e-01h  3
 137  3.9987763e-01 7.17e+03 7.29e+00  -1.7 1.46e+03  -8.8 1.00e+00 1.00e+00H  1
 138  3.9987726e-01 1.46e+04 7.12e+00  -1.7 9.52e+03  -9.3 3.30e-01 3.12e-02h  6
 139  3.9987724e-01 1.56e+04 6.85e+00  -1.7 3.92e+03  -8.8 1.00e+00 3.12e-02h  6
iter    objective    inf_pr   inf_du lg(mu)  ||d||  lg(rg) alpha_du alpha_pr  ls
 140  3.9987494e-01 6.95e+03 1.10e+00  -1.7 8.05e+02  -8.4 1.00e+00 1.00e+00H  1
 141  3.9987480e-01 9.72e+03 1.06e+00  -1.7 3.85e+03  -8.9 6.11e-01 3.12e-02h  6
 142  3.9987474e-01 1.11e+04 1.02e+00  -1.7 1.48e+03  -8.5 1.00e+00 6.25e-02h  5
 143  3.9987474e-01 1.35e+04 1.01e+00  -1.7 6.41e+03  -8.9 2.88e-01 1.56e-02h  7
 144  3.9987474e-01 1.43e+04 9.67e-01  -1.7 2.08e+03  -8.5 1.00e+00 3.12e-02h  6
 145  3.9987482e-01 1.48e+04 9.68e-01  -1.7 2.56e+04  -9.0 6.74e-02 1.65e-03h  9
 146  3.9987487e-01 1.54e+04 9.36e-01  -1.7 3.34e+03  -8.6 1.00e+00 1.56e-02h  7
 147  3.9987392e-01 1.33e+04 2.21e-01  -1.7 5.58e+02  -8.1 1.00e+00 1.00e+00H  1
 148  3.9987390e-01 1.42e+04 3.45e-01  -1.7 2.56e+03  -8.6 5.28e-01 1.56e-02h  7
 149  3.9987390e-01 1.45e+04 2.44e-01  -1.7 1.00e+03  -8.2 1.00e+00 3.12e-02h  6
iter    objective    inf_pr   inf_du lg(mu)  ||d||  lg(rg) alpha_du alpha_pr  ls
 150  3.9987390e-01 1.50e+04 3.37e-01  -1.7 3.43e+03  -8.7 3.10e-01 7.81e-03h  8
 151  3.9987391e-01 1.60e+04 1.92e-01  -1.7 1.33e+03  -8.2 1.00e+00 3.12e-02h  6
 152  3.9987392e-01 1.60e+04 3.39e-01  -1.7 6.82e+03  -8.7 1.49e-01 4.18e-04h 12
 153  3.9987393e-01 1.61e+04 1.78e-01  -1.7 2.00e+03  -8.3 1.00e+00 7.81e-03h  8
 154r 3.9987393e-01 1.61e+04 1.00e+03   3.2 0.00e+00  -8.8 0.00e+00 4.04e-07R 20
 155r 5.1479092e+11 4.08e+03 8.85e+04   3.2 1.61e+06    -  1.98e-02 9.90e-04f  1
 156r 8.0259317e+13 4.47e+02 2.10e+05   3.2 1.87e+04    -  4.29e-01 2.09e-02f  1
 157r 2.6235770e+14 3.42e+02 1.82e+05   3.2 9.63e+01    -  1.06e-01 1.15e-01f  1
 158r 1.6040458e+15 1.24e+03 1.48e+05   3.2 9.30e+01    -  1.54e-01 3.82e-01f  1
 159r 5.6992722e+15 1.05e+03 4.73e+04   3.2 3.69e+01    -  4.19e-01 6.95e-01f  1
iter    objective    inf_pr   inf_du lg(mu)  ||d||  lg(rg) alpha_du alpha_pr  ls
 160r 3.2158311e+15 2.30e+03 3.49e+04   2.5 5.02e+01    -  1.00e+00 9.32e-01f  1
 161r 4.2051394e+15 2.23e+02 3.13e+02   2.5 1.43e+01    -  1.00e+00 1.00e+00f  1
 162r 1.0258809e+15 1.14e+03 9.76e+03   0.4 3.72e+01    -  9.92e-01 9.10e-01f  1
 163r 8.4951703e+14 5.46e-02 2.37e+00   0.4 1.11e+00    -  1.00e+00 1.00e+00f  1
 164  8.4934807e+14 5.31e-02 1.05e+15  -1.7 2.58e+04   3.1 2.52e-01 8.84e-05f 14
 165  8.4932103e+14 5.31e-02 1.05e+15  -1.7 2.35e+05   2.6 4.12e-02 7.25e-06f 16
 166  8.4915624e+14 1.30e-01 1.05e+15  -1.7 3.02e+04   3.0 3.29e-01 8.46e-05f 14
 167  8.4914413e+14 1.40e-01 1.05e+15  -1.7 4.49e+05   2.5 1.94e-02 2.16e-06f 17
 168  8.4913411e+14 1.40e-01 1.05e+15  -1.7 3.57e+04   3.0 3.10e-01 5.02e-06f 18
 169  8.4643891e+14 8.78e+02 1.05e+15  -1.7 2.54e+06   2.5 3.35e-03 1.12e-04f  9
Reallocating memory for MA57: lfact (435189)
iter    objective    inf_pr   inf_du lg(mu)  ||d||  lg(rg) alpha_du alpha_pr  ls
 170  8.4159673e+14 1.01e+03 1.05e+15  -1.7 4.23e+04   2.9 3.17e-01 2.37e-03f  9
 171  8.1854695e+14 1.33e+03 1.04e+15  -1.7 1.20e+04   3.3 6.61e-01 1.30e-02f  7
 172  8.1632187e+14 1.36e+03 1.04e+15  -1.7 4.83e+04   2.9 1.99e-01 1.10e-03f 10
 173  8.1081128e+14 1.39e+03 1.03e+15  -1.7 1.32e+04   3.3 7.01e-01 3.18e-03f  9
 174  3.9812448e+13 1.22e+07 3.42e+15  -1.7 5.80e+04   2.8 1.41e-01 5.15e-01w  1
 175  6.4558424e+10 3.20e+06 5.83e+14  -1.7 9.63e+03   2.3 6.96e-01 9.90e-01w  1
 176  2.5534144e+06 7.79e+05 4.59e+12  -1.7 1.09e+03   1.9 8.67e-01 9.93e-01w  1
 177  8.0976451e+14 1.40e+03 1.03e+15  -1.7 1.26e+03   1.4 1.41e-01 5.03e-04f 10
 178  8.0953183e+14 1.40e+03 1.03e+15  -1.7 9.12e+04   2.7 2.19e-01 9.90e-05f 13
 179  8.0824255e+14 1.40e+03 1.03e+15  -1.7 2.00e+04   3.1 7.11e-01 7.27e-04f 11
iter    objective    inf_pr   inf_du lg(mu)  ||d||  lg(rg) alpha_du alpha_pr  ls
 180  8.0813467e+14 1.40e+03 1.03e+15  -1.7 1.20e+05   2.7 7.27e-02 4.18e-05f 14
 181  8.0750675e+14 1.40e+03 1.03e+15  -1.7 2.31e+04   3.1 7.65e-01 3.50e-04f 12
 182  8.0740787e+14 1.40e+03 1.03e+15  -1.7 1.69e+05   2.6 4.73e-02 3.32e-05f 14
 183  8.0710273e+14 1.40e+03 1.03e+15  -1.7 2.69e+04   3.0 8.00e-01 1.67e-04f 13
 184  8.0705822e+14 1.40e+03 1.03e+15  -1.7 2.66e+05   2.6 3.01e-02 1.18e-05f 15
 185  8.0691035e+14 1.40e+03 1.03e+15  -1.7 3.16e+04   3.0 8.67e-01 7.95e-05f 14
 186  8.0689080e+14 1.40e+03 1.03e+15  -1.7 5.57e+05   2.5 1.44e-02 3.16e-06f 16
 187  2.6997312e+13 7.45e+06 2.71e+15  -1.7 3.73e+04   2.9 9.75e-01 6.14e-01w  1
 188  6.7095911e+09 1.98e+06 2.62e+14  -1.7 4.87e+03   2.5 1.28e-01 9.90e-01w  1
 189  1.8597838e+05 4.89e+05 1.59e+12  -1.7 7.78e+02   2.0 9.38e-01 9.95e-01w  1
iter    objective    inf_pr   inf_du lg(mu)  ||d||  lg(rg) alpha_du alpha_pr  ls
 190  4.0115335e-01 1.54e+04 1.99e+09  -1.7 7.96e+02   1.5 1.00e+00 1.00e+00f  1
 191  4.0094802e-01 4.86e+02 4.76e+07  -1.7 3.68e+01   1.0 1.00e+00 1.00e+00h  1
 192  4.0094802e-01 4.28e-02 3.89e+03  -1.7 1.06e+00   0.6 1.00e+00 1.00e+00h  1
 193  4.0094802e-01 2.91e-08 3.62e-02  -1.7 9.30e-05   0.1 1.00e+00 1.00e+00h  1
 194  4.0094802e-01 4.37e-08 1.74e-02  -3.8 7.53e-08  -0.4 1.00e+00 1.00e+00h  1
 195  4.0094802e-01 2.91e-08 1.23e-02  -3.8 2.26e-07  -0.9 1.00e+00 1.00e+00h  1
 196  4.0094802e-01 4.37e-08 1.88e-02  -3.8 6.78e-07  -1.4 1.00e+00 1.00e+00H  1
 197  4.0094802e-01 4.37e-08 5.65e-03  -3.8 2.03e-06  -1.8 1.00e+00 1.00e+00h  1
 198  4.0094802e-01 4.37e-08 1.81e-02  -3.8 6.10e-06  -2.3 1.00e+00 1.00e+00h  1
 199  4.0094802e-01 2.91e-08 1.70e-03  -3.8 1.83e-05  -2.8 1.00e+00 5.00e-01h  2
iter    objective    inf_pr   inf_du lg(mu)  ||d||  lg(rg) alpha_du alpha_pr  ls
 200  4.0094802e-01 4.37e-08 3.91e-03  -3.8 5.49e-05  -3.3 1.00e+00 1.00e+00h  1
 201  4.0094802e-01 4.37e-08 7.25e-03  -3.8 1.65e-04  -3.7 1.00e+00 1.00e+00H  1
 202  4.0094802e-01 5.29e-07 7.90e-03  -3.8 4.94e-04  -4.2 1.00e+00 1.00e+00h  1
 203  4.0094802e-01 4.77e-06 1.55e-02  -3.8 1.48e-03  -4.7 1.00e+00 1.00e+00h  1
 204  4.0094802e-01 4.29e-05 1.22e-02  -3.8 4.45e-03  -5.2 1.00e+00 1.00e+00h  1
 205  4.0094802e-01 3.86e-04 2.60e-02  -3.8 1.33e-02  -5.7 1.00e+00 1.00e+00h  1
 206  4.0094802e-01 3.48e-03 1.26e-02  -3.8 4.00e-02  -6.1 1.00e+00 1.00e+00h  1
 207  4.0094802e-01 3.13e-02 2.69e-02  -3.8 1.20e-01  -6.6 1.00e+00 1.00e+00h  1
 208  4.0094802e-01 2.82e-01 5.63e-02  -3.8 3.60e-01  -7.1 1.00e+00 1.00e+00h  1
 209  4.0094802e-01 2.54e+00 7.11e-02  -3.8 1.08e+00  -7.6 1.00e+00 1.00e+00h  1
iter    objective    inf_pr   inf_du lg(mu)  ||d||  lg(rg) alpha_du alpha_pr  ls
 210  4.0094801e-01 2.30e+01 1.05e-02  -3.8 3.25e+00  -8.0 1.00e+00 1.00e+00h  1
 211  4.0094800e-01 2.09e+02 1.90e-03  -3.8 9.76e+00  -8.5 1.00e+00 1.00e+00h  1
 212  4.0094798e-01 1.95e+03 6.60e-03  -3.8 2.94e+01  -9.0 1.00e+00 1.00e+00h  1
 213  4.0094789e-01 4.09e+03 9.06e-02  -3.8 9.35e+01  -9.5 1.00e+00 1.00e+00H  1
 214  4.0094784e-01 3.60e+03 5.11e-02  -3.8 3.56e+01  -9.9 1.00e+00 1.25e-01h  4
 215  4.0094776e-01 3.37e+03 3.94e-02  -3.8 4.77e+01 -10.4 1.00e+00 6.25e-02h  5
 216  4.0094385e-01 1.00e+03 1.59e+01  -3.8 1.42e+02 -10.9 1.00e+00 1.00e+00H  1
 217  4.0094385e-01 3.20e+03 3.35e-02  -3.8 4.05e+01  -8.7 1.00e+00 1.00e+00h  1
 218  4.0094383e-01 2.46e+03 3.54e-03  -3.8 2.64e+01  -9.1 1.00e+00 2.50e-01h  3
 219  4.0094381e-01 3.10e+01 2.39e-02  -3.8 1.60e+01  -8.7 1.00e+00 1.00e+00h  1
iter    objective    inf_pr   inf_du lg(mu)  ||d||  lg(rg) alpha_du alpha_pr  ls
 220  4.0094373e-01 4.20e+00 1.83e-02  -3.8 3.95e+00  -9.2 1.00e+00 1.00e+00h  1
 221  4.0094350e-01 2.10e+00 3.29e-03  -3.8 8.43e+00  -9.7 1.00e+00 1.00e+00h  1
 222  4.0094282e-01 1.88e+01 4.91e-01  -3.8 2.54e+01 -10.2 1.00e+00 1.00e+00h  1
 223  4.0094076e-01 2.05e+01 4.37e+00  -3.8 7.64e+01 -10.6 1.00e+00 1.00e+00h  1
 224  4.0093448e-01 2.82e+02 3.86e+01  -3.8 2.27e+02 -11.1 1.00e+00 1.00e+00h  1
 225  4.0091478e-01 3.40e+01 3.37e+02  -3.8 6.64e+02 -11.6 1.00e+00 1.00e+00H  1
 226  4.0084846e-01 3.96e+02 2.78e+03  -3.8 1.87e+03 -12.1 1.00e+00 1.00e+00H  1
 227  4.0059817e-01 2.94e+02 1.96e+04  -3.8 4.79e+03 -12.5 1.00e+00 1.00e+00H  1
 228  3.9960107e-01 9.48e+02 9.62e+04  -3.8 1.01e+04 -13.0 1.00e+00 1.00e+00H  1
 229  3.9955721e-01 8.60e+02 9.47e+04  -3.8 1.61e+04 -13.5 1.00e+00 1.56e-02h  7
iter    objective    inf_pr   inf_du lg(mu)  ||d||  lg(rg) alpha_du alpha_pr  ls
 230  3.9951286e-01 7.88e+02 9.44e+04  -3.8 9.37e+04 -14.0 1.00e+00 3.83e-03h  9
 231  3.9951152e-01 7.88e+02 9.44e+04  -3.8 4.76e+05    -  6.18e-01 2.44e-05h 14
 232r 3.9951152e-01 7.88e+02 1.00e+03   1.9 0.00e+00 -14.4 0.00e+00 2.71e-07R 19
 233r 4.0531223e+10 1.99e+02 9.63e+04   1.9 7.88e+04    -  1.98e-02 9.91e-04f  1
 234r 1.4310598e+13 2.13e+01 6.79e+04   1.9 9.15e+02    -  3.52e-01 2.09e-02f  1
 235r 7.6676320e+13 1.58e+01 6.30e+04   1.9 5.66e+00    -  9.28e-02 9.79e-02f  1
 236r 8.7097935e+14 1.52e+00 2.43e+04   1.9 3.72e+00    -  1.00e+00 4.45e-01f  1
 237r 3.4030460e+15 2.24e+00 3.56e+01   1.9 1.92e+00    -  1.00e+00 1.00e+00f  1
 238r 6.4704951e+14 6.44e-02 6.12e+02  -0.2 3.89e+00    -  9.98e-01 9.77e-01f  1
 239r 5.2589674e+14 1.63e-02 7.57e-01  -0.2 2.28e-01    -  1.00e+00 1.00e+00f  1
iter    objective    inf_pr   inf_du lg(mu)  ||d||  lg(rg) alpha_du alpha_pr  ls
 240r 5.9082605e+13 5.39e-04 2.45e-01  -2.4 6.66e-01    -  1.00e+00 1.00e+00f  1
 241r 3.7174352e+13 9.74e-05 6.23e-03  -2.4 6.94e-02    -  1.00e+00 1.00e+00h  1
 242r 1.2525512e+12 3.09e-06 2.31e-03  -3.6 2.17e-01    -  1.00e+00 1.00e+00f  1
 243r 4.9398907e+11 1.73e-06 2.74e+04  -5.4 4.10e-02    -  9.07e-01 4.43e-01f  1
 244r 4.5675845e+10 3.28e-07 3.06e+03  -5.4 2.41e-02    -  9.35e-01 8.87e-01f  1
 245r 2.3693579e+09 4.37e-08 6.79e-07  -5.4 7.21e-03    -  1.00e+00 1.00e+00f  1
 246r 2.2019881e+05 4.37e-08 2.35e+00  -8.1 2.12e-03    -  1.00e+00 9.94e-01f  1
 247r 4.2427787e+06 4.37e-08 2.09e-08  -8.1 6.95e-05    -  1.00e+00 1.00e+00h  1
 248r 6.6308694e+00 4.37e-08 3.47e-09 -11.0 8.98e-05    -  1.00e+00 1.00e+00h  1
 249r 4.7661912e+03 2.91e-08 3.71e-11 -11.0 2.91e-06    -  1.00e+00 1.00e+00s 22
iter    objective    inf_pr   inf_du lg(mu)  ||d||  lg(rg) alpha_du alpha_pr  ls
 250r 4.7661934e+03 4.37e-08 3.71e-11 -11.0 3.71e-10    -  1.00e+00 0.00e+00S 22
 251r 4.7661934e+03 4.37e-08 3.59e-11 -11.0 3.08e-10    -  1.00e+00 3.12e-02h  6
Restoration phase converged to a point with small primal infeasibility.

Number of Iterations....: 251

                                   (scaled)                 (unscaled)
Objective...............:   4.7661934178738575e+03    4.7661934178738575e+03
Dual infeasibility......:   3.1614054934389796e+09    3.1614054934389796e+09
Constraint violation....:   4.3655745685100555e-09    4.3655745685100555e-08
Complementarity.........:   9.0909090909091227e-12    9.0909090909091227e-12
Overall NLP error.......:   3.1614054934389796e+09    3.1614054934389796e+09


Number of objective function evaluations             = 406
Number of objective gradient evaluations             = 226
Number of equality constraint evaluations            = 1181
Number of inequality constraint evaluations          = 0
Number of equality constraint Jacobian evaluations   = 256
Number of inequality constraint Jacobian evaluations = 0
Number of Lagrangian Hessian evaluations             = 252
Total CPU secs in IPOPT (w/o function evaluations)   =      4.747
Total CPU secs in NLP function evaluations           =      1.200

EXIT: Restoration Failed!
Note: The following floating-point exceptions are signalling: IEEE_UNDERFLOW_FLAG IEEE_DENORMAL

************************ CUTEst statistics ************************


 Package used            :  IPOPT
 Problem                 :  BRAINPC6  
 # variables             =            6907
 # constraints           =            6900
 # objective functions   =        0.6330000E+03
 # objective gradients   =        0.2270000E+03
 # objective Hessians    =        0.2510000E+03
 # Hessian-vector prdct  =        0.0000000E+00
 # constraints functions =        0.1439000E+04
 # constraints gradients =        0.2580000E+03
 # constraints Hessians  =        0.2510000E+03
 Exit code               =              -2
 Final f                 =   0.4766193E+04
 Set up time             =            0.51 seconds
 Solve time              =            5.97 seconds


******************************************************************

System Time =       5.9720001221 s.
